Problem:    
Rows:       113
Columns:    45 (34 integer, 34 binary)
Non-zeros:  356
Status:     INTEGER OPTIMAL
Objective:  value = 5.801113 (MINimum)

   No.   Row name        Activity     Lower bound   Upper bound
------ ------------    ------------- ------------- -------------
     1 r.5                   5.80111             0               
     2 r.6                   5.80111      -998.205               
     3 r.7                    1005.8             0               
     4 r.8                  -994.199      -999.023               
     5 r.9                   5.80111             0               
     6 r.10                  5.80111      -997.375               
     7 r.11                   1005.8             0               
     8 r.12                 -995.176      -998.274               
     9 r.13                  5.80111             0               
    10 r.14                  5.80111      -997.681               
    11 r.15                   1005.8             0               
    12 r.16                 -996.902      -998.075               
    13 r.17                   1005.8             0               
    14 r.18                 -994.199      -996.251               
    15 r.19                  5.80111             0               
    16 r.20                  5.80111      -996.715               
    17 r.21                  5.80111             0               
    18 r.22                  1.96952      -999.805               
    19 r.23                   1005.8             0               
    20 r.24                 -999.468      -999.468               
    21 r.25                        1             1             = 
    22 r.26                        1             1             = 
    23 r.27                        1             1             = 
    24 r.28                        1             1             = 
    25 r.29                        1             1             = 
    26 r.30                     1000             2               
    27 r.31                    -1000         -1001               
    28 r.32                     2000      -997.375               
    29 r.33                        2             2               
    30 r.34                       -2         -1001               
    31 r.35                -0.977444      -998.274               
    32 r.36                     1000             2               
    33 r.37                    -1000         -1001               
    34 r.38                     2000      -997.681               
    35 r.39                        2             2               
    36 r.40                       -2         -1001               
    37 r.41                 -2.70344      -998.075               
    38 r.42                     1001             2               
    39 r.43                    -1001         -1001               
    40 r.44                     2000      -996.251               
    41 r.45                     1001             2               
    42 r.46                    -1001         -1001               
    43 r.47                     2000      -996.715               
    44 r.48                  4.62826      -998.205               
    45 r.49                 -995.372      -999.023               
    46 r.50                  4.62826      -998.205               
    47 r.51                 -995.372      -999.023               
    48 r.52                     1000             2               
    49 r.53                    -1000         -1001               
    50 r.54                     2000         1.795               
    51 r.55                        2             2               
    52 r.56                       -2         -1001               
    53 r.57                 0.977444      0.977444               
    54 r.58                     1000             2               
    55 r.59                    -1000         -1001               
    56 r.60                     2000      -997.681               
    57 r.61                        2             2               
    58 r.62                       -2         -1001               
    59 r.63                   -1.726      -998.075               
    60 r.64                     1001             2               
    61 r.65                    -1001         -1001               
    62 r.66                     2000      -996.251               
    63 r.67                     1001             2               
    64 r.68                    -1001         -1001               
    65 r.69                  2000.98      -996.715               
    66 r.70                  4.62826      -997.375               
    67 r.71                 -996.349      -998.274               
    68 r.72                  4.62826      -997.375               
    69 r.73                 -996.349      -998.274               
    70 r.74                     1000             2               
    71 r.75                    -1000         -1001               
    72 r.76                     2000         1.795               
    73 r.77                        2             2               
    74 r.78                       -2         -1001               
    75 r.79                  2.70344      0.977444               
    76 r.80                     1000             2               
    77 r.81                    -1000         -1001               
    78 r.82                     2000       2.62458               
    79 r.83                        2             2               
    80 r.84                       -2         -1001               
    81 r.85                    1.726         1.726               
    82 r.86                     1001             2               
    83 r.87                    -1001         -1001               
    84 r.88                     2000      -996.251               
    85 r.89                     1001             2               
    86 r.90                    -1001         -1001               
    87 r.91                   2002.7      -996.715               
    88 r.92                  4.62826      -997.681               
    89 r.93                 -998.075      -998.075               
    90 r.94                  4.62826      -997.681               
    91 r.95                 -998.075      -998.075               
    92 r.96                     1001             2               
    93 r.97                    -1001         -1001               
    94 r.98                     2000         1.795               
    95 r.99                     1001             2               
    96 r.100                   -1001         -1001               
    97 r.101                    2000      0.977444               
    98 r.102                    1001             2               
    99 r.103                   -1001         -1001               
   100 r.104                    2000       2.62458               
   101 r.105                    1001             2               
   102 r.106                   -1001         -1001               
   103 r.107                 1999.02         1.726               
   104 r.108                    1001             2               
   105 r.109                   -1001         -1001               
   106 r.110                    2000       2.31861               
   107 r.111                    1001             2               
   108 r.112                   -1001         -1001               
   109 r.113                  1997.3       1.92482               
   110 r.114                -995.372      -996.251               
   111 r.115                 4.62826      -996.715               
   112 r.116                -995.372      -996.251               
   113 r.117                 4.62826      -996.715               

   No. Column name       Activity     Lower bound   Upper bound
------ ------------    ------------- ------------- -------------
     1 tt                    5.80111             0               
     2 s_1_1        *              0             0             1 
     3 t_1_1                       0             0               
     4 s_2_1        *              1             0             1 
     5 t_2_1                       0             0               
     6 s_1_2        *              0             0             1 
     7 t_1_2                       0             0               
     8 s_2_2        *              1             0             1 
     9 t_2_2                0.977444             0               
    10 s_1_3        *              0             0             1 
    11 t_1_3                       0             0               
    12 s_2_3        *              1             0             1 
    13 t_2_3                 2.70344             0               
    14 s_1_4        *              1             0             1 
    15 t_1_4                       0             0               
    16 s_2_4        *              0             0             1 
    17 t_2_4                       0             0               
    18 s_1_5        *              0             0             1 
    19 t_1_5                 4.62826             0               
    20 s_2_5        *              1             0             1 
    21 t_2_5                 4.62826             0               
    22 r_1_1_2      *              1             0             1 
    23 u_1_1_2      *              0             0             1 
    24 r_2_1_2      *              0             0             1 
    25 u_2_1_2      *              0             0             1 
    26 r_1_1_3      *              1             0             1 
    27 u_1_1_3      *              0             0             1 
    28 r_2_1_3      *              0             0             1 
    29 u_2_1_3      *              0             0             1 
    30 r_1_1_4      *              1             0             1 
    31 u_1_1_4      *              0             0             1 
    32 r_2_1_4      *              1             0             1 
    33 u_2_1_4      *              0             0             1 
    34 r_1_2_3      *              1             0             1 
    35 u_1_2_3      *              0             0             1 
    36 r_2_2_3      *              0             0             1 
    37 u_2_2_3      *              0             0             1 
    38 r_1_2_4      *              1             0             1 
    39 u_1_2_4      *              0             0             1 
    40 r_2_2_4      *              1             0             1 
    41 u_2_2_4      *              0             0             1 
    42 r_1_3_4      *              1             0             1 
    43 u_1_3_4      *              0             0             1 
    44 r_2_3_4      *              1             0             1 
    45 u_2_3_4      *              0             0             1 

Integer feasibility conditions:

KKT.PE: max.abs.err = 1.14e-13 on row 20
        max.rel.err = 5.64e-17 on row 20
        High quality

KKT.PB: max.abs.err = 9.55e-15 on row 81
        max.rel.err = 3.50e-15 on row 81
        High quality

End of output
